\ Model Routes
\ LP format - for model browsing. Use MPS format to capture full model detail.
Maximize
  - 191.7153353028244 R{0,0} + 623.2046552982704 R{0,1}
   + 623.2046552982704 R{0,2} - 249.2301939667805 R{0,3}
   - 37.65529250152403 R{0,4} + 633.0024468603488 R{0,5}
   + 592.7206778310878 R{0,6} + 473.5672092698705 R{0,7}
   + 434.1633846344188 R{0,8} + 568.2280287393723 R{0,9}
   + 1096.48692768015 R{0,10} + 685.0261369101624 R{0,11}
   + 824.0055412753513 R{0,12} + 96.79623890446209 R{0,13}
   + 774.5634726394071 R{0,14} + 445.8410121218103 R{0,15}
   + 298.5440338668762 R{0,16} + 1029.943244018977 R{0,17}
   + 230.9422236090722 R{0,18} + 672.776749804264 R{0,19}
   + 230.9422236090722 R{0,20} + 406.6719678117956 R{0,21}
   + 139.8500386128197 R{0,22} - 256.140831891889 R{1,0}
   - 277.5134838130095 R{1,1} + 468.947430945026 R{1,2}
   - 239.7225681556408 R{1,3} + 1175.282634318197 R{1,4}
   + 1134.84599414382 R{1,5} + 861.5691953489213 R{1,6}
   + 665.5659520756114 R{1,7} + 679.8803760585877 R{1,8}
   + 607.1882028831819 R{1,9} + 679.8803760585877 R{1,10}
   + 358.3665582141123 R{1,11} + 1132.94281845211 R{1,12}
   + 555.0365758836531 R{1,13} + 502.3681296788462 R{1,14}
   + 416.7443074065418 R{1,15} + 1012.711283317237 R{1,16}
   + 796.0135614492829 R{1,17} + 88.58194964297434 R{1,18}
   + 337.4951050572174 R{1,19} + 739.5387123453432 R{1,20}
   + 1120.500558788412 R{1,21} + 1866.472249390615 R{1,22}
   + 586.7213807709279 R{1,23} + 1672.505900874664 R{1,24}
   + 951.8471637201953 R{1,25} + 1063.378820103685 R{1,26}
   + 1198.881248318718 R{2,0} + 1198.881248318718 R{2,1}
   - 278.4443928850388 R{2,2} - 87.89167469767733 R{2,3}
   + 438.5969478700737 R{2,4} + 465.2175846111744 R{2,5}
   + 465.2175846111744 R{2,6} + 641.9599537346069 R{2,7}
   + 661.1183809175574 R{2,8} + 547.9951927354014 R{2,9}
   + 1561.92457697342 R{2,10} + 1448.248264420176 R{2,11}
   + 473.9263938819845 R{2,12} + 972.0651374481311 R{2,13}
   + 947.5724883564153 R{2,14} + 1342.65668131031 R{2,15}
   + 972.0651374481311 R{2,16} + 1461.992995470926 R{2,17}
   + 1127.126554447374 R{2,18} + 972.0651374481311 R{2,19}
   + 581.2871227127752 R{2,20} + 254.2699887389686 R{2,21}
   + 287.3528375540188 R{2,22} + 366.4991454077374 R{2,23}
   + 944.662847905345 R{2,24} + 645.5773564733056 R{2,25}
   + 484.606778020975 R{2,26} + 975.1754841201657 R{2,27}
   + 177.9883099738421 R{2,28} + 915.2724312268413 R{2,29}
   - 7.716417249643627 R{2,30} - 152.0441444569009 R{2,31}
   + 326.082237387893 R{2,32} + 359.6260015013082 R{2,33}
   + 723.8667241578627 R{2,34} + 484.606778020975 R{2,35}
   - 260.2482995389823 R{3,0} + 672.1577233314238 R{3,1}
   + 1040.098686597953 R{3,2} + 1363.878278474687 R{3,3}
   + 1404.65360460564 R{3,4} + 1087.325147550203 R{3,5}
   + 1439.852604476426 R{3,6} + 1129.302925667657 R{3,7}
   + 1287.654470372879 R{3,8} + 832.9667308157366 R{3,9}
   + 1585.638112830726 R{3,10} + 1113.918622793743 R{3,11}
   + 654.1112899576291 R{3,12} + 497.2906830809676 R{3,13}
   + 1410.496826169844 R{3,14} + 1356.676471066027 R{3,15}
   + 701.3067653295128 R{3,16} + 1287.654470372879 R{3,17}
   + 464.1366692507751 R{3,18} + 1097.971857781736 R{3,19}
   + 1072.886801027852 R{3,20} + 893.2893573810691 R{3,21}
   + 2642.079212613328 R{3,22} + 1620.002315135467 R{3,23}
   + 1560.751595426885 R{3,24} + 1370.84852007639 R{3,25}
   + 904.70890520544 R{3,26} + 883.5149529757168 R{3,27}
   + 1355.689203309867 R{3,28} + 884.9114518804918 R{3,29}
   + 1492.561492764511 R{3,30} + 934.2565663958048 R{3,31}
   + 879.8029034047324 R{3,32} + 1099.636450247856 R{3,33}
   + 834.1822110154042 R{3,34} + 309.9873546234376 R{3,35}
   + 682.1649275886607 R{3,36} + 424.0674647063819 R{3,37}
   + 2160.072018357732 R{3,38} + 1695.232513193768 R{3,39}
   + 1259.519314886333 R{3,40} - 242.5208875955131 R{4,0}
   + 1055.572474837385 R{4,1} + 1576.196574514046 R{4,2}
   + 1399.451666461665 R{4,3} + 1396.332219309262 R{4,4}
   + 2526.459735594097 R{4,5} + 2259.218727515315 R{4,6}
   + 1439.484349179252 R{4,7} + 1132.248338857745 R{4,8}
   + 1221.023851949214 R{4,9} + 1094.135564208969 R{4,10}
   + 2526.848717112835 R{4,11} + 2526.848717112835 R{4,12}
   + 2526.848717112835 R{4,13} + 2124.971485125781 R{4,14}
   + 3330.995981389709 R{4,15} + 1925.228216916579 R{4,16}
   + 2780.526243057466 R{4,17} + 1623.510438597564 R{4,18}
   + 2330.165276511907 R{4,19} + 2037.104895569998 R{4,20}
   + 1464.1780587387 R{4,21} + 1787.431920599304 R{4,22}
   + 1626.692164410134 R{4,23} + 3603.11028539265 R{4,24}
   + 1738.003742804051 R{4,25} + 1514.609693015155 R{4,26}
   + 1826.997936381723 R{4,27} + 1738.003742804051 R{4,28}
   + 1274.36549094027 R{4,29} + 802.2378547896653 R{4,30}
   + 1096.288501224108 R{4,31} + 2111.478966717326 R{4,32}
   + 3148.483005774996 R{4,33} + 1737.277817991737 R{4,34}
   + 1436.345994716012 R{4,35} + 1464.409842151757 R{4,36}
   + 1832.39341479838 R{4,37} + 1464.409842151757 R{4,38}
   - 231.9775664337766 R{5,0} + 281.6502712537329 R{5,1}
   + 866.1144926430113 R{5,2} + 130.3159053000199 R{5,3}
   + 544.678593552977 R{5,4} + 130.3159053000199 R{5,5}
   + 179.5947531595458 R{5,6} + 179.5947531595458 R{5,7}
   + 130.3159053000199 R{5,8} + 158.0602895800514 R{5,9}
   + 130.3159053000199 R{5,10} + 158.0602895800514 R{5,11}
   + 605.7429540713213 R{5,12} + 328.5479195157668 R{5,13}
   + 496.8316775419144 R{5,14} + 451.0156100358142 R{5,15}
   + 605.7429540713213 R{5,16} + 559.9064744434482 R{5,17}
   + 771.1432011259659 R{5,18} + 310.3440863435853 R{5,19}
   + 150.2896030275437 R{5,20} + 695.0636917576612 R{5,21}
   - 231.1436095783099 R{6,0} + 1195.286596672249 R{6,1}
   + 1936.553790555055 R{6,2} + 2357.708821428034 R{6,3}
   + 2375.503344322256 R{6,4} + 1091.481399076154 R{6,5}
   + 855.6645976459754 R{6,6} + 1258.559102868134 R{6,7}
   + 1210.343901034919 R{6,8} + 1062.416111196584 R{6,9}
   + 2031.416264221291 R{6,10} + 1957.892077941272 R{6,11}
   + 855.6645976459754 R{6,12} + 1952.564225076825 R{6,13}
   + 1408.052911428337 R{6,14} + 1927.483177028334 R{6,15}
   + 1339.792064475245 R{6,16} + 1927.483177028334 R{6,17}
   + 1512.668226628719 R{6,18} + 1519.639397454469 R{6,19}
   + 1143.665787880297 R{6,20} + 2263.728928961521 R{6,21}
   + 1630.355858693039 R{6,22} + 2811.64723397493 R{6,23}
   + 2031.416264221291 R{6,24} + 2639.23714468398 R{6,25}
   + 1347.630341504283 R{6,26} + 1716.343234944905 R{6,27}
   + 1992.4771713874 R{6,28} + 1001.069697056785 R{6,29}
   + 878.3445768463114 R{6,30} + 1430.119451754461 R{6,31}
   + 2236.980511588992 R{6,32} + 3022.307244529874 R{6,33}
   + 1165.762359711444 R{6,34} + 1227.172310502189 R{6,35}
   + 2901.773439994455 R{6,36} + 1035.570795223149 R{6,37}
Subject To
 R00: R{0,0} <= 1
 R01: R{0,1} <= 1
 R02: R{0,2} <= 1
 R03: R{0,3} <= 1
 R04: R{0,4} <= 1
 R05: R{0,5} <= 1
 R06: R{0,6} <= 1
 R07: R{0,7} <= 1
 R08: R{0,8} <= 1
 R09: R{0,9} <= 1
 R010: R{0,10} <= 1
 R011: R{0,11} <= 1
 R012: R{0,12} <= 1
 R013: R{0,13} <= 1
 R014: R{0,14} <= 1
 R015: R{0,15} <= 1
 R016: R{0,16} <= 1
 R017: R{0,17} <= 1
 R018: R{0,18} <= 1
 R019: R{0,19} <= 1
 R020: R{0,20} <= 1
 R021: R{0,21} <= 1
 R022: R{0,22} <= 1
 R023: R{1,0} <= 1
 R024: R{1,1} <= 1
 R025: R{1,2} <= 1
 R026: R{1,3} <= 1
 R027: R{1,4} <= 1
 R028: R{1,5} <= 1
 R029: R{1,6} <= 1
 R030: R{1,7} <= 1
 R031: R{1,8} <= 1
 R032: R{1,9} <= 1
 R033: R{1,10} <= 1
 R034: R{1,11} <= 1
 R035: R{1,12} <= 1
 R036: R{1,13} <= 1
 R037: R{1,14} <= 1
 R038: R{1,15} <= 1
 R039: R{1,16} <= 1
 R040: R{1,17} <= 1
 R041: R{1,18} <= 1
 R042: R{1,19} <= 1
 R043: R{1,20} <= 1
 R044: R{1,21} <= 1
 R045: R{1,22} <= 1
 R046: R{1,23} <= 1
 R047: R{1,24} <= 1
 R048: R{1,25} <= 1
 R049: R{1,26} <= 1
 R050: R{2,0} <= 1
 R051: R{2,1} <= 1
 R052: R{2,2} <= 1
 R053: R{2,3} <= 1
 R054: R{2,4} <= 1
 R055: R{2,5} <= 1
 R056: R{2,6} <= 1
 R057: R{2,7} <= 1
 R058: R{2,8} <= 1
 R059: R{2,9} <= 1
 R060: R{2,10} <= 1
 R061: R{2,11} <= 1
 R062: R{2,12} <= 1
 R063: R{2,13} <= 1
 R064: R{2,14} <= 1
 R065: R{2,15} <= 1
 R066: R{2,16} <= 1
 R067: R{2,17} <= 1
 R068: R{2,18} <= 1
 R069: R{2,19} <= 1
 R070: R{2,20} <= 1
 R071: R{2,21} <= 1
 R072: R{2,22} <= 1
 R073: R{2,23} <= 1
 R074: R{2,24} <= 1
 R075: R{2,25} <= 1
 R076: R{2,26} <= 1
 R077: R{2,27} <= 1
 R078: R{2,28} <= 1
 R079: R{2,29} <= 1
 R080: R{2,30} <= 1
 R081: R{2,31} <= 1
 R082: R{2,32} <= 1
 R083: R{2,33} <= 1
 R084: R{2,34} <= 1
 R085: R{2,35} <= 1
 R086: R{3,0} <= 1
 R087: R{3,1} <= 1
 R088: R{3,2} <= 1
 R089: R{3,3} <= 1
 R090: R{3,4} <= 1
 R091: R{3,5} <= 1
 R092: R{3,6} <= 1
 R093: R{3,7} <= 1
 R094: R{3,8} <= 1
 R095: R{3,9} <= 1
 R096: R{3,10} <= 1
 R097: R{3,11} <= 1
 R098: R{3,12} <= 1
 R099: R{3,13} <= 1
 R0100: R{3,14} <= 1
 R0101: R{3,15} <= 1
 R0102: R{3,16} <= 1
 R0103: R{3,17} <= 1
 R0104: R{3,18} <= 1
 R0105: R{3,19} <= 1
 R0106: R{3,20} <= 1
 R0107: R{3,21} <= 1
 R0108: R{3,22} <= 1
 R0109: R{3,23} <= 1
 R0110: R{3,24} <= 1
 R0111: R{3,25} <= 1
 R0112: R{3,26} <= 1
 R0113: R{3,27} <= 1
 R0114: R{3,28} <= 1
 R0115: R{3,29} <= 1
 R0116: R{3,30} <= 1
 R0117: R{3,31} <= 1
 R0118: R{3,32} <= 1
 R0119: R{3,33} <= 1
 R0120: R{3,34} <= 1
 R0121: R{3,35} <= 1
 R0122: R{3,36} <= 1
 R0123: R{3,37} <= 1
 R0124: R{3,38} <= 1
 R0125: R{3,39} <= 1
 R0126: R{3,40} <= 1
 R0127: R{4,0} <= 1
 R0128: R{4,1} <= 1
 R0129: R{4,2} <= 1
 R0130: R{4,3} <= 1
 R0131: R{4,4} <= 1
 R0132: R{4,5} <= 1
 R0133: R{4,6} <= 1
 R0134: R{4,7} <= 1
 R0135: R{4,8} <= 1
 R0136: R{4,9} <= 1
 R0137: R{4,10} <= 1
 R0138: R{4,11} <= 1
 R0139: R{4,12} <= 1
 R0140: R{4,13} <= 1
 R0141: R{4,14} <= 1
 R0142: R{4,15} <= 1
 R0143: R{4,16} <= 1
 R0144: R{4,17} <= 1
 R0145: R{4,18} <= 1
 R0146: R{4,19} <= 1
 R0147: R{4,20} <= 1
 R0148: R{4,21} <= 1
 R0149: R{4,22} <= 1
 R0150: R{4,23} <= 1
 R0151: R{4,24} <= 1
 R0152: R{4,25} <= 1
 R0153: R{4,26} <= 1
 R0154: R{4,27} <= 1
 R0155: R{4,28} <= 1
 R0156: R{4,29} <= 1
 R0157: R{4,30} <= 1
 R0158: R{4,31} <= 1
 R0159: R{4,32} <= 1
 R0160: R{4,33} <= 1
 R0161: R{4,34} <= 1
 R0162: R{4,35} <= 1
 R0163: R{4,36} <= 1
 R0164: R{4,37} <= 1
 R0165: R{4,38} <= 1
 R0166: R{5,0} <= 1
 R0167: R{5,1} <= 1
 R0168: R{5,2} <= 1
 R0169: R{5,3} <= 1
 R0170: R{5,4} <= 1
 R0171: R{5,5} <= 1
 R0172: R{5,6} <= 1
 R0173: R{5,7} <= 1
 R0174: R{5,8} <= 1
 R0175: R{5,9} <= 1
 R0176: R{5,10} <= 1
 R0177: R{5,11} <= 1
 R0178: R{5,12} <= 1
 R0179: R{5,13} <= 1
 R0180: R{5,14} <= 1
 R0181: R{5,15} <= 1
 R0182: R{5,16} <= 1
 R0183: R{5,17} <= 1
 R0184: R{5,18} <= 1
 R0185: R{5,19} <= 1
 R0186: R{5,20} <= 1
 R0187: R{5,21} <= 1
 R0188: R{6,0} <= 1
 R0189: R{6,1} <= 1
 R0190: R{6,2} <= 1
 R0191: R{6,3} <= 1
 R0192: R{6,4} <= 1
 R0193: R{6,5} <= 1
 R0194: R{6,6} <= 1
 R0195: R{6,7} <= 1
 R0196: R{6,8} <= 1
 R0197: R{6,9} <= 1
 R0198: R{6,10} <= 1
 R0199: R{6,11} <= 1
 R0200: R{6,12} <= 1
 R0201: R{6,13} <= 1
 R0202: R{6,14} <= 1
 R0203: R{6,15} <= 1
 R0204: R{6,16} <= 1
 R0205: R{6,17} <= 1
 R0206: R{6,18} <= 1
 R0207: R{6,19} <= 1
 R0208: R{6,20} <= 1
 R0209: R{6,21} <= 1
 R0210: R{6,22} <= 1
 R0211: R{6,23} <= 1
 R0212: R{6,24} <= 1
 R0213: R{6,25} <= 1
 R0214: R{6,26} <= 1
 R0215: R{6,27} <= 1
 R0216: R{6,28} <= 1
 R0217: R{6,29} <= 1
 R0218: R{6,30} <= 1
 R0219: R{6,31} <= 1
 R0220: R{6,32} <= 1
 R0221: R{6,33} <= 1
 R0222: R{6,34} <= 1
 R0223: R{6,35} <= 1
 R0224: R{6,36} <= 1
 R0225: R{6,37} <= 1
 R1_0: R{0,0} + R{0,1} + R{0,2} + R{0,3} + R{0,4} + R{0,5} + R{0,6}
   + R{0,7} + R{0,8} + R{0,9} + R{0,10} + R{0,11} + R{0,12} + R{0,13}
   + R{0,14} + R{0,15} + R{0,16} + R{0,17} + R{0,18} + R{0,19} + R{0,20}
   + R{0,21} + R{0,22} <= 1
 R1_1: R{1,0} + R{1,1} + R{1,2} + R{1,3} + R{1,4} + R{1,5} + R{1,6}
   + R{1,7} + R{1,8} + R{1,9} + R{1,10} + R{1,11} + R{1,12} + R{1,13}
   + R{1,14} + R{1,15} + R{1,16} + R{1,17} + R{1,18} + R{1,19} + R{1,20}
   + R{1,21} + R{1,22} + R{1,23} + R{1,24} + R{1,25} + R{1,26} <= 1
 R1_2: R{2,0} + R{2,1} + R{2,2} + R{2,3} + R{2,4} + R{2,5} + R{2,6}
   + R{2,7} + R{2,8} + R{2,9} + R{2,10} + R{2,11} + R{2,12} + R{2,13}
   + R{2,14} + R{2,15} + R{2,16} + R{2,17} + R{2,18} + R{2,19} + R{2,20}
   + R{2,21} + R{2,22} + R{2,23} + R{2,24} + R{2,25} + R{2,26} + R{2,27}
   + R{2,28} + R{2,29} + R{2,30} + R{2,31} + R{2,32} + R{2,33} + R{2,34}
   + R{2,35} <= 1
 R1_3: R{3,0} + R{3,1} + R{3,2} + R{3,3} + R{3,4} + R{3,5} + R{3,6}
   + R{3,7} + R{3,8} + R{3,9} + R{3,10} + R{3,11} + R{3,12} + R{3,13}
   + R{3,14} + R{3,15} + R{3,16} + R{3,17} + R{3,18} + R{3,19} + R{3,20}
   + R{3,21} + R{3,22} + R{3,23} + R{3,24} + R{3,25} + R{3,26} + R{3,27}
   + R{3,28} + R{3,29} + R{3,30} + R{3,31} + R{3,32} + R{3,33} + R{3,34}
   + R{3,35} + R{3,36} + R{3,37} + R{3,38} + R{3,39} + R{3,40} <= 1
 R1_4: R{4,0} + R{4,1} + R{4,2} + R{4,3} + R{4,4} + R{4,5} + R{4,6}
   + R{4,7} + R{4,8} + R{4,9} + R{4,10} + R{4,11} + R{4,12} + R{4,13}
   + R{4,14} + R{4,15} + R{4,16} + R{4,17} + R{4,18} + R{4,19} + R{4,20}
   + R{4,21} + R{4,22} + R{4,23} + R{4,24} + R{4,25} + R{4,26} + R{4,27}
   + R{4,28} + R{4,29} + R{4,30} + R{4,31} + R{4,32} + R{4,33} + R{4,34}
   + R{4,35} + R{4,36} + R{4,37} + R{4,38} <= 1
 R1_5: R{5,0} + R{5,1} + R{5,2} + R{5,3} + R{5,4} + R{5,5} + R{5,6}
   + R{5,7} + R{5,8} + R{5,9} + R{5,10} + R{5,11} + R{5,12} + R{5,13}
   + R{5,14} + R{5,15} + R{5,16} + R{5,17} + R{5,18} + R{5,19} + R{5,20}
   + R{5,21} <= 1
 R1_6: R{6,0} + R{6,1} + R{6,2} + R{6,3} + R{6,4} + R{6,5} + R{6,6}
   + R{6,7} + R{6,8} + R{6,9} + R{6,10} + R{6,11} + R{6,12} + R{6,13}
   + R{6,14} + R{6,15} + R{6,16} + R{6,17} + R{6,18} + R{6,19} + R{6,20}
   + R{6,21} + R{6,22} + R{6,23} + R{6,24} + R{6,25} + R{6,26} + R{6,27}
   + R{6,28} + R{6,29} + R{6,30} + R{6,31} + R{6,32} + R{6,33} + R{6,34}
   + R{6,35} + R{6,36} + R{6,37} <= 1
 R2_0: 7 R{0,14} + 7 R{0,16} + 7 R{2,22} + 7 R{3,22} + 7 R{3,38}
   + 7 R{4,24} + 7 R{4,26} + 7 R{4,35} + 7 R{6,21} + 7 R{6,27} + 7 R{6,28}
   + 7 R{6,37} <= 7
 R2_1: 10 R{0,10} + 10 R{0,11} + 10 R{0,17} + 10 R{0,19} + 10 R{2,25}
   + 10 R{3,1} + 10 R{3,2} + 10 R{3,3} + 10 R{3,4} + 10 R{3,6} + 10 R{3,7}
   + 10 R{3,8} + 10 R{3,9} + 10 R{3,10} + 10 R{3,11} + 10 R{3,12}
   + 10 R{3,13} + 10 R{3,14} + 10 R{3,15} + 10 R{3,16} + 10 R{3,17}
   + 10 R{3,18} + 10 R{3,21} + 10 R{3,23} + 10 R{3,24} + 10 R{3,25}
   + 10 R{3,26} + 10 R{3,27} + 10 R{3,28} + 10 R{3,30} + 10 R{3,31}
   + 10 R{3,32} + 10 R{3,33} + 10 R{3,34} + 10 R{3,36} + 10 R{3,39}
   + 10 R{3,40} + 10 R{6,14} + 10 R{6,16} + 10 R{6,30} <= 10
 R2_2: <= 0
 R2_3: <= 4
 R2_4: <= 0
 R2_5: 5 R{0,4} + 5 R{0,5} + 5 R{5,3} + 5 R{5,4} + 5 R{5,5} + 5 R{5,8}
   + 5 R{5,10} + 5 R{5,13} + 5 R{5,19} <= 5
 R2_6: <= 10
 R2_7: 6 R{1,1} + 6 R{1,2} + 6 R{1,3} + 6 R{1,4} + 6 R{1,7} + 6 R{1,15}
   + 6 R{1,24} + 6 R{1,26} <= 6
 R2_8: <= 0
 R2_9: 12 R{2,9} + 12 R{3,22} + 12 R{3,38} + 12 R{4,1} + 12 R{4,2}
   + 12 R{4,3} + 12 R{4,4} + 12 R{4,7} + 12 R{4,8} + 12 R{4,9} + 12 R{4,10}
   + 12 R{4,23} + 12 R{4,29} + 12 R{4,30} + 12 R{4,31} + 12 R{4,34} <= 12
 R2_10: 8 R{0,6} + 8 R{0,7} + 8 R{1,4} + 8 R{1,26} + 8 R{2,13} + 8 R{2,16}
   + 8 R{2,19} + 8 R{3,37} + 8 R{3,39} + 8 R{4,16} + 8 R{6,1} + 8 R{6,2}
   + 8 R{6,5} + 8 R{6,23} + 8 R{6,25} + 8 R{6,34} <= 8
 R2_11: 15 R{2,27} + 15 R{2,34} + 15 R{3,22} + 15 R{3,38} <= 15
 R2_12: <= 0
 R2_13: 8 R{1,8} + 8 R{1,10} + 8 R{1,12} <= 8
 R2_14: <= 0
 R2_15: 11 R{0,0} + 11 R{0,1} + 11 R{0,2} + 11 R{4,1} + 11 R{4,2}
   + 11 R{4,10} <= 11
 R2_16: 5 R{2,17} + 5 R{4,15} + 5 R{4,19} + 5 R{4,33} + 5 R{6,23}
   + 5 R{6,25} + 5 R{6,33} + 5 R{6,36} <= 5
 R2_17: 11 R{3,37} + 11 R{4,26} + 11 R{4,34} <= 11
 R2_18: 5 R{1,5} + 5 R{1,16} + 5 R{1,22} + 5 R{1,25} <= 5
 R2_19: 11 R{0,10} + 11 R{1,14} + 11 R{1,20} + 11 R{2,20} + 11 R{2,21}
   + 11 R{3,5} + 11 R{3,19} + 11 R{3,20} + 11 R{3,22} + 11 R{3,23}
   + 11 R{3,29} + 11 R{3,38} + 11 R{4,1} + 11 R{4,2} + 11 R{4,3}
   + 11 R{4,4} + 11 R{4,5} + 11 R{4,6} + 11 R{4,8} + 11 R{4,10}
   + 11 R{4,11} + 11 R{4,12} + 11 R{4,13} + 11 R{4,14} + 11 R{4,15}
   + 11 R{4,16} + 11 R{4,17} + 11 R{4,18} + 11 R{4,20} + 11 R{4,24}
   + 11 R{4,29} + 11 R{4,33} + 11 R{5,15} + 11 R{5,17} + 11 R{5,18}
   + 11 R{6,8} <= 11
 R2_20: 13 R{0,11} + 13 R{0,21} + 13 R{1,12} + 13 R{1,17} + 13 R{1,20}
   + 13 R{1,23} + 13 R{1,24} + 13 R{1,25} + 13 R{2,4} + 13 R{2,5}
   + 13 R{2,6} + 13 R{2,10} + 13 R{2,11} + 13 R{2,15} + 13 R{2,18}
   + 13 R{2,23} + 13 R{2,26} + 13 R{2,28} + 13 R{2,29} + 13 R{2,33}
   + 13 R{2,35} + 13 R{3,3} + 13 R{3,4} + 13 R{3,5} + 13 R{3,6} + 13 R{3,7}
   + 13 R{3,8} + 13 R{3,9} + 13 R{3,10} + 13 R{3,11} + 13 R{3,14}
   + 13 R{3,15} + 13 R{3,17} + 13 R{3,19} + 13 R{3,20} + 13 R{3,22}
   + 13 R{3,23} + 13 R{3,24} + 13 R{3,25} + 13 R{3,27} + 13 R{3,29}
   + 13 R{3,31} + 13 R{3,32} + 13 R{3,34} + 13 R{3,36} + 13 R{3,38}
   + 13 R{3,39} + 13 R{3,40} + 13 R{4,5} + 13 R{4,11} + 13 R{4,12}
   + 13 R{4,13} + 13 R{4,14} + 13 R{4,16} + 13 R{4,17} + 13 R{4,19}
   + 13 R{4,21} + 13 R{4,22} + 13 R{4,24} + 13 R{4,26} + 13 R{4,31}
   + 13 R{4,32} + 13 R{4,33} + 13 R{4,36} + 13 R{4,38} + 13 R{5,4}
   + 13 R{5,12} + 13 R{5,14} + 13 R{5,16} + 13 R{5,17} + 13 R{5,18}
   + 13 R{5,21} + 13 R{6,1} + 13 R{6,2} + 13 R{6,3} + 13 R{6,4} + 13 R{6,7}
   + 13 R{6,10} + 13 R{6,11} + 13 R{6,13} + 13 R{6,14} + 13 R{6,15}
   + 13 R{6,17} + 13 R{6,19} + 13 R{6,21} + 13 R{6,23} + 13 R{6,24}
   + 13 R{6,25} + 13 R{6,26} + 13 R{6,27} + 13 R{6,28} + 13 R{6,31}
   + 13 R{6,32} + 13 R{6,33} + 13 R{6,35} + 13 R{6,36} <= 13
 R2_21: <= 0
 R2_22: 10 R{0,14} + 10 R{0,15} + 10 R{0,18} + 10 R{0,20} + 10 R{1,16}
   + 10 R{1,25} + 10 R{3,34} + 10 R{4,26} <= 10
 R2_23: 14 R{0,1} + 14 R{0,2} + 14 R{0,6} + 14 R{0,9} + 14 R{2,0}
   + 14 R{2,1} + 14 R{2,9} + 14 R{2,13} + 14 R{2,14} + 14 R{2,16}
   + 14 R{2,17} + 14 R{2,19} + 14 R{6,3} + 14 R{6,4} + 14 R{6,10}
   + 14 R{6,23} + 14 R{6,24} + 14 R{6,28} + 14 R{6,33} + 14 R{6,36} <= 14
 R2_24: 10 R{3,1} + 10 R{3,2} + 10 R{3,3} + 10 R{3,12} + 10 R{3,14}
   + 10 R{3,16} + 10 R{3,19} + 10 R{3,20} + 10 R{3,21} + 10 R{3,22}
   + 10 R{3,24} + 10 R{3,26} + 10 R{3,28} + 10 R{3,38} + 10 R{4,6}
   + 10 R{4,15} + 10 R{4,19} + 10 R{6,7} + 10 R{6,14} + 10 R{6,19}
   + 10 R{6,20} <= 10
 R2_25: 13 R{1,22} + 13 R{3,7} + 13 R{3,9} + 13 R{3,28} + 13 R{3,29}
   + 13 R{3,30} + 13 R{3,31} + 13 R{3,32} + 13 R{3,33} + 13 R{3,35}
   + 13 R{3,37} + 13 R{3,38} + 13 R{4,1} + 13 R{4,2} + 13 R{4,3}
   + 13 R{4,4} + 13 R{4,5} + 13 R{4,7} + 13 R{4,8} + 13 R{4,9} + 13 R{4,10}
   + 13 R{4,11} + 13 R{4,12} + 13 R{4,13} + 13 R{4,14} + 13 R{4,15}
   + 13 R{4,16} + 13 R{4,17} + 13 R{4,18} + 13 R{4,19} + 13 R{4,20}
   + 13 R{4,21} + 13 R{4,23} + 13 R{4,24} + 13 R{4,25} + 13 R{4,28}
   + 13 R{4,29} + 13 R{4,30} + 13 R{4,31} + 13 R{4,32} + 13 R{4,33}
   + 13 R{4,35} + 13 R{4,36} + 13 R{4,37} + 13 R{4,38} + 13 R{6,31} <= 13
 R2_26: 6 R{0,21} + 6 R{1,4} + 6 R{1,13} + 6 R{1,24} + 6 R{5,1} + 6 R{5,2}
   + 6 R{5,3} + 6 R{5,4} + 6 R{5,5} + 6 R{5,6} + 6 R{5,7} + 6 R{5,8}
   + 6 R{5,9} + 6 R{5,10} + 6 R{5,11} + 6 R{5,12} + 6 R{5,13} + 6 R{5,14}
   + 6 R{5,16} + 6 R{5,21} + 6 R{6,27} <= 6
 R2_27: 5 R{1,6} + 5 R{1,17} + 5 R{2,10} + 5 R{2,24} + 5 R{2,25}
   + 5 R{2,29} + 5 R{3,4} + 5 R{3,6} + 5 R{3,8} + 5 R{3,10} + 5 R{3,13}
   + 5 R{3,15} + 5 R{3,17} + 5 R{3,24} + 5 R{3,27} + 5 R{3,39} + 5 R{3,40}
   + 5 R{4,5} + 5 R{4,11} + 5 R{4,12} + 5 R{4,13} + 5 R{4,14} + 5 R{4,15}
   + 5 R{4,16} + 5 R{4,17} + 5 R{4,19} + 5 R{4,24} + 5 R{4,32} + 5 R{4,33}
   + 5 R{4,37} + 5 R{6,1} + 5 R{6,2} + 5 R{6,3} + 5 R{6,4} + 5 R{6,5}
   + 5 R{6,6} + 5 R{6,8} + 5 R{6,9} + 5 R{6,10} + 5 R{6,11} + 5 R{6,12}
   + 5 R{6,13} + 5 R{6,15} + 5 R{6,16} + 5 R{6,17} + 5 R{6,18} + 5 R{6,19}
   + 5 R{6,21} + 5 R{6,22} + 5 R{6,23} + 5 R{6,24} + 5 R{6,25} + 5 R{6,26}
   + 5 R{6,27} + 5 R{6,28} + 5 R{6,29} + 5 R{6,31} + 5 R{6,32} + 5 R{6,33}
   + 5 R{6,34} + 5 R{6,35} + 5 R{6,36} + 5 R{6,37} <= 5
 R2_28: <= 0
 R2_29: <= 0
 R2_30: <= 0
 R2_31: 6 R{2,26} + 6 R{2,35} <= 6
 R2_32: 7 R{3,22} + 7 R{3,38} + 7 R{5,1} + 7 R{5,2} + 7 R{5,6} + 7 R{5,7}
   + 7 R{5,9} + 7 R{5,11} + 7 R{5,12} + 7 R{5,13} + 7 R{5,15} + 7 R{5,16}
   + 7 R{5,18} + 7 R{5,20} + 7 R{5,21} <= 7
 R2_33: 12 R{1,4} + 12 R{1,7} + 12 R{1,8} + 12 R{1,9} + 12 R{1,10}
   + 12 R{1,11} + 12 R{1,12} + 12 R{1,13} + 12 R{1,15} + 12 R{1,17}
   + 12 R{1,18} + 12 R{1,21} + 12 R{1,23} + 12 R{1,24} + 12 R{1,26}
   + 12 R{3,39} + 12 R{3,40} + 12 R{4,6} + 12 R{4,22} + 12 R{4,27}
   + 12 R{6,30} + 12 R{6,37} <= 12
 R2_34: 5 R{0,14} + 5 R{0,15} + 5 R{0,18} + 5 R{0,20} + 5 R{1,16}
   + 5 R{1,25} + 5 R{3,15} + 5 R{3,22} + 5 R{3,38} + 5 R{4,15} + 5 R{4,17}
   + 5 R{4,22} + 5 R{4,24} + 5 R{4,27} + 5 R{4,33} + 5 R{4,34} + 5 R{4,36}
   + 5 R{4,38} + 5 R{6,21} + 5 R{6,22} + 5 R{6,23} + 5 R{6,27} + 5 R{6,33}
   + 5 R{6,35} + 5 R{6,36} <= 5
 R2_35: 13 R{3,28} + 13 R{3,30} + 13 R{3,32} + 13 R{4,21} + 13 R{4,23}
   + 13 R{6,20} <= 13
 R2_36: <= 0
 R2_37: 5 R{3,1} + 5 R{3,2} + 5 R{3,12} + 5 R{3,16} + 5 R{3,18} + 5 R{3,21}
   + 5 R{3,26} + 5 R{5,19} + 5 R{5,20} <= 5
 R2_38: <= 0
 R2_39: <= 0
 R2_40: 15 R{2,3} + 15 R{2,4} + 15 R{2,5} + 15 R{2,6} + 15 R{2,8}
   + 15 R{2,10} + 15 R{2,11} + 15 R{2,15} + 15 R{2,18} + 15 R{2,20}
   + 15 R{2,21} + 15 R{2,24} + 15 R{2,26} + 15 R{2,31} + 15 R{2,32}
   + 15 R{2,33} + 15 R{2,35} <= 15
 R2_41: 5 R{1,5} + 5 R{1,22} + 5 R{3,2} + 5 R{3,3} + 5 R{3,11} + 5 R{3,14}
   + 5 R{3,21} + 5 R{3,23} + 5 R{3,24} + 5 R{3,26} + 5 R{4,7} + 5 R{4,9}
   + 5 R{4,24} + 5 R{4,33} + 5 R{4,34} + 5 R{6,5} + 5 R{6,6} + 5 R{6,9}
   + 5 R{6,12} + 5 R{6,16} + 5 R{6,26} + 5 R{6,31} <= 5
 R2_42: 4 R{2,3} + 4 R{2,4} + 4 R{2,5} + 4 R{2,6} + 4 R{2,8} + 4 R{2,10}
   + 4 R{2,11} + 4 R{2,18} <= 4
 R2_43: <= 0
 R2_44: <= 0
 R2_45: <= 0
 R2_46: 9 R{0,7} + 9 R{0,12} + 9 R{0,13} + 9 R{2,7} + 9 R{4,5} + 9 R{4,6}
   + 9 R{4,11} + 9 R{4,12} + 9 R{4,13} + 9 R{4,17} + 9 R{4,18} + 9 R{4,20}
   + 9 R{4,21} + 9 R{4,22} + 9 R{4,23} + 9 R{4,24} + 9 R{4,25} + 9 R{4,27}
   + 9 R{4,28} + 9 R{4,29} + 9 R{4,32} + 9 R{4,34} + 9 R{4,35} + 9 R{4,36}
   + 9 R{4,37} + 9 R{4,38} + 9 R{6,10} + 9 R{6,24} + 9 R{6,25} + 9 R{6,28}
   <= 9
 R2_47: 7 R{5,1} + 7 R{5,2} + 7 R{5,3} + 7 R{5,5} + 7 R{5,6} + 7 R{5,7}
   + 7 R{5,8} + 7 R{5,10} + 7 R{5,13} + 7 R{5,15} <= 7
 R2_48: 4 R{3,22} + 4 R{3,38} + 4 R{4,1} + 4 R{4,2} + 4 R{4,3} + 4 R{4,4}
   + 4 R{4,5} + 4 R{4,6} + 4 R{4,7} + 4 R{4,8} + 4 R{4,10} + 4 R{4,11}
   + 4 R{4,12} + 4 R{4,13} + 4 R{4,14} + 4 R{4,15} + 4 R{4,17} + 4 R{4,19}
   + 4 R{4,20} + 4 R{4,21} + 4 R{4,23} + 4 R{4,24} + 4 R{4,25} + 4 R{4,28}
   + 4 R{4,29} + 4 R{4,32} + 4 R{4,33} + 4 R{4,34} + 4 R{4,37} <= 4
 R2_49: <= 0
 R2_50: <= 0
 R2_51: 11 R{1,4} + 11 R{1,7} + 11 R{1,8} + 11 R{1,9} + 11 R{1,10}
   + 11 R{1,11} + 11 R{1,12} + 11 R{1,13} + 11 R{1,14} + 11 R{1,15}
   + 11 R{1,18} + 11 R{1,19} + 11 R{1,20} + 11 R{1,23} + 11 R{1,24}
   + 11 R{1,26} + 11 R{2,32} + 11 R{6,30} <= 11
 R2_52: 10 R{4,26} <= 10
 R2_53: 13 R{4,1} + 13 R{4,2} + 13 R{4,10} + 13 R{4,29} <= 13
 R2_54: 9 R{3,1} + 9 R{3,2} + 9 R{3,3} + 9 R{3,4} + 9 R{3,5} + 9 R{3,6}
   + 9 R{3,8} + 9 R{3,10} + 9 R{3,11} + 9 R{3,12} + 9 R{3,13} + 9 R{3,14}
   + 9 R{3,15} + 9 R{3,16} + 9 R{3,17} + 9 R{3,18} + 9 R{3,19} + 9 R{3,20}
   + 9 R{3,21} + 9 R{3,22} + 9 R{3,23} + 9 R{3,25} + 9 R{3,26} + 9 R{3,31}
   + 9 R{3,39} + 9 R{3,40} + 9 R{4,24} <= 9
 R2_55: 8 R{1,19} + 8 R{6,1} + 8 R{6,2} + 8 R{6,3} + 8 R{6,4} + 8 R{6,5}
   + 8 R{6,6} + 8 R{6,7} + 8 R{6,9} + 8 R{6,10} + 8 R{6,11} + 8 R{6,12}
   + 8 R{6,13} + 8 R{6,14} + 8 R{6,15} + 8 R{6,16} + 8 R{6,17} + 8 R{6,18}
   + 8 R{6,19} + 8 R{6,20} + 8 R{6,21} + 8 R{6,22} + 8 R{6,23} + 8 R{6,24}
   + 8 R{6,25} + 8 R{6,26} + 8 R{6,27} + 8 R{6,28} + 8 R{6,29} + 8 R{6,32}
   + 8 R{6,33} + 8 R{6,34} + 8 R{6,35} + 8 R{6,36} <= 8
 R2_56: 6 R{0,12} + 6 R{0,14} + 6 R{0,16} + 6 R{0,22} + 6 R{1,16}
   + 6 R{1,22} + 6 R{1,26} + 6 R{2,0} + 6 R{2,1} + 6 R{2,12} + 6 R{2,13}
   + 6 R{2,14} + 6 R{2,16} + 6 R{2,17} + 6 R{2,19} + 6 R{2,22} + 6 R{2,27}
   + 6 R{2,34} + 6 R{3,22} + 6 R{3,25} + 6 R{3,28} + 6 R{3,30} + 6 R{3,35}
   + 6 R{4,3} + 6 R{4,4} + 6 R{4,5} + 6 R{4,7} + 6 R{4,9} + 6 R{4,11}
   + 6 R{4,12} + 6 R{4,13} + 6 R{4,14} + 6 R{4,15} + 6 R{4,16} + 6 R{4,17}
   + 6 R{4,18} + 6 R{4,19} + 6 R{4,23} + 6 R{4,25} + 6 R{4,28} + 6 R{4,30}
   + 6 R{4,31} + 6 R{4,32} + 6 R{4,35} + 6 R{4,37} + 6 R{6,32} + 6 R{6,34}
   + 6 R{6,37} <= 6
 R2_57: <= 0
 R2_58: 15 R{6,36} <= 15
 R2_59: 10 R{1,4} + 10 R{1,7} + 10 R{1,8} + 10 R{1,9} + 10 R{1,10}
   + 10 R{1,11} + 10 R{1,12} + 10 R{1,13} + 10 R{1,15} + 10 R{1,19}
   + 10 R{1,21} + 10 R{1,22} + 10 R{1,24} + 10 R{3,4} + 10 R{3,5}
   + 10 R{3,6} + 10 R{3,7} + 10 R{3,8} + 10 R{3,10} + 10 R{3,17}
   + 10 R{3,28} + 10 R{3,37} + 10 R{3,39} + 10 R{4,6} + 10 R{4,8}
   + 10 R{4,20} + 10 R{4,23} + 10 R{6,7} + 10 R{6,14} + 10 R{6,19}
   + 10 R{6,20} + 10 R{6,34} <= 10
 R2_60: <= 0
 R2_61: 9 R{1,4} + 9 R{1,7} + 9 R{1,8} + 9 R{1,9} + 9 R{1,10} + 9 R{1,12}
   + 9 R{1,21} + 9 R{1,24} + 9 R{1,26} + 9 R{3,25} + 9 R{4,6} + 9 R{4,15}
   + 9 R{4,20} + 9 R{4,21} + 9 R{4,22} + 9 R{4,25} + 9 R{4,27} + 9 R{4,28}
   + 9 R{4,33} + 9 R{4,36} + 9 R{4,38} + 9 R{6,20} + 9 R{6,33} <= 9
 R2_62: 10 R{6,20} <= 10
 R2_63: <= 0
 R2_64: <= 0
 R2_65: 5 R{0,15} + 5 R{2,0} + 5 R{2,1} + 5 R{2,7} + 5 R{2,9} + 5 R{2,17}
   + 5 R{2,27} + 5 R{4,15} + 5 R{4,24} + 5 R{4,34} + 5 R{6,1} + 5 R{6,2}
   + 5 R{6,3} + 5 R{6,4} + 5 R{6,5} + 5 R{6,7} + 5 R{6,9} + 5 R{6,10}
   + 5 R{6,11} + 5 R{6,13} + 5 R{6,15} + 5 R{6,16} + 5 R{6,17} + 5 R{6,18}
   + 5 R{6,20} + 5 R{6,22} + 5 R{6,24} + 5 R{6,25} + 5 R{6,26} + 5 R{6,31}
   <= 5
 R2_66: 7 R{1,16} + 7 R{4,37} + 7 R{6,1} + 7 R{6,2} + 7 R{6,3} + 7 R{6,4}
   + 7 R{6,5} + 7 R{6,6} + 7 R{6,9} + 7 R{6,10} + 7 R{6,11} + 7 R{6,12}
   + 7 R{6,13} + 7 R{6,15} + 7 R{6,16} + 7 R{6,17} + 7 R{6,18} + 7 R{6,21}
   + 7 R{6,22} + 7 R{6,23} + 7 R{6,24} + 7 R{6,25} + 7 R{6,27} + 7 R{6,28}
   + 7 R{6,32} + 7 R{6,33} + 7 R{6,34} + 7 R{6,35} + 7 R{6,36} + 7 R{6,37}
   <= 7
 R2_67: 3 R{0,1} + 3 R{0,2} + 3 R{0,6} + 3 R{0,7} + 3 R{0,9} + 3 R{0,12}
   + 3 R{2,0} + 3 R{2,1} + 3 R{2,7} + 3 R{2,12} + 3 R{2,13} + 3 R{2,14}
   + 3 R{2,16} + 3 R{2,17} + 3 R{2,19} + 3 R{2,27} + 3 R{2,34} + 3 R{4,5}
   + 3 R{4,6} + 3 R{4,11} + 3 R{4,12} + 3 R{4,13} + 3 R{4,14} + 3 R{4,15}
   + 3 R{4,16} + 3 R{4,17} + 3 R{4,18} + 3 R{4,19} + 3 R{4,20} + 3 R{4,22}
   + 3 R{4,24} + 3 R{4,25} + 3 R{4,26} + 3 R{4,27} + 3 R{4,28} + 3 R{4,32}
   + 3 R{4,33} + 3 R{4,35} + 3 R{4,37} <= 3
 R2_68: 6 R{4,1} + 6 R{4,3} + 6 R{4,4} + 6 R{4,7} + 6 R{4,9} + 6 R{4,10}
   + 6 R{4,30} + 6 R{6,21} + 6 R{6,23} + 6 R{6,27} + 6 R{6,30} + 6 R{6,32}
   + 6 R{6,33} + 6 R{6,36} <= 6
 R2_69: 7 R{0,11} + 7 R{1,14} + 7 R{2,23} + 7 R{3,23} + 7 R{3,28}
   + 7 R{3,30} + 7 R{3,32} + 7 R{3,33} + 7 R{3,36} + 7 R{4,1} + 7 R{4,2}
   + 7 R{4,3} + 7 R{4,4} + 7 R{4,6} + 7 R{4,7} + 7 R{4,8} + 7 R{4,9}
   + 7 R{4,10} + 7 R{4,18} + 7 R{4,20} + 7 R{4,21} + 7 R{4,22} + 7 R{4,23}
   + 7 R{4,25} + 7 R{4,26} + 7 R{4,28} + 7 R{4,29} + 7 R{4,30} + 7 R{4,31}
   + 7 R{4,34} + 7 R{4,35} + 7 R{4,36} + 7 R{4,38} <= 7
 R2_70: 11 R{1,1} + 11 R{1,2} <= 11
 R2_71: 7 R{1,5} + 7 R{1,16} + 7 R{1,25} + 7 R{3,1} + 7 R{3,2} + 7 R{3,3}
   + 7 R{3,4} + 7 R{3,5} + 7 R{3,6} + 7 R{3,7} + 7 R{3,9} + 7 R{3,11}
   + 7 R{3,12} + 7 R{3,14} + 7 R{3,15} + 7 R{3,16} + 7 R{3,18} + 7 R{3,19}
   + 7 R{3,20} + 7 R{3,22} + 7 R{3,25} + 7 R{3,29} + 7 R{3,31} + 7 R{3,34}
   + 7 R{3,39} + 7 R{4,15} + 7 R{6,7} + 7 R{6,14} + 7 R{6,19} + 7 R{6,20}
   <= 7
 R2_72: <= 0
 R2_73: 11 R{4,33} <= 11
 R2_74: 5 R{5,1} + 5 R{5,3} + 5 R{5,4} + 5 R{5,5} + 5 R{5,8} + 5 R{5,10}
   + 5 R{5,13} + 5 R{5,14} + 5 R{5,15} + 5 R{5,19} + 5 R{5,20} + 5 R{5,21}
   <= 5
 R2_75: 8 R{6,1} + 8 R{6,2} + 8 R{6,3} + 8 R{6,4} + 8 R{6,10} + 8 R{6,11}
   + 8 R{6,13} + 8 R{6,15} + 8 R{6,17} + 8 R{6,18} + 8 R{6,24} + 8 R{6,25}
   + 8 R{6,28} + 8 R{6,35} <= 8
 R2_76: 12 R{0,4} + 12 R{0,5} + 12 R{0,17} + 12 R{1,4} + 12 R{1,24}
   + 12 R{1,26} + 12 R{2,11} + 12 R{2,15} + 12 R{2,20} + 12 R{2,25}
   + 12 R{2,29} + 12 R{2,30} + 12 R{2,32} + 12 R{3,10} + 12 R{4,15}
   + 12 R{4,24} + 12 R{5,19} + 12 R{6,30} <= 12
 R2_77: 7 R{0,5} + 7 R{0,8} + 7 R{0,10} + 7 R{0,17} + 7 R{0,19} + 7 R{1,2}
   + 7 R{1,5} + 7 R{1,6} + 7 R{1,21} + 7 R{1,22} + 7 R{2,8} + 7 R{2,10}
   + 7 R{2,11} + 7 R{2,15} + 7 R{2,18} + 7 R{2,24} + 7 R{3,30} + 7 R{3,33}
   + 7 R{4,2} + 7 R{4,27} + 7 R{5,2} + 7 R{6,2} + 7 R{6,3} + 7 R{6,4}
   + 7 R{6,8} + 7 R{6,11} + 7 R{6,13} + 7 R{6,15} + 7 R{6,17} + 7 R{6,18}
   + 7 R{6,21} + 7 R{6,22} + 7 R{6,23} + 7 R{6,25} + 7 R{6,29} + 7 R{6,32}
   + 7 R{6,33} + 7 R{6,36} <= 7
Bounds
End
